set of int: SET_m1_tag_0 = { 0, 1, 3 };
set of int: SET_m3_tag_0 = { 0, 3 };
set of int: SET_m3_tag_1 = { 1, 3 };
var SET_m1_tag_0: m1_tag_0;
var 1 .. 3: m1_tag_1;
var 1 .. 3: m2_tag_0;
var 2 .. 3: m2_tag_1;
var SET_m3_tag_0: m3_tag_0;
var SET_m3_tag_1: m3_tag_1;
output 
  [ "", "m1_tag_0=", show(m1_tag_0), " ", "m1_tag_1=", show(m1_tag_1), " ", 
    "m2_tag_0=", show(m2_tag_0), " ", "m2_tag_1=", show(m2_tag_1), " ", 
    "m3_tag_0=", show(m3_tag_0), " ", "m3_tag_1=", show(m3_tag_1), " " ];
